p cnf 1219 2593
c ind 1 2 3 4 5 6 7 8 9 10 11 12 13 14 15 16 17 18 19 20 21 22 23 24 25 26 27 0
-1 1 28 0
-1 4 29 0
-1 7 30 0
-4 1 31 0
-4 4 32 0
-4 7 33 0
-7 1 34 0
-7 4 35 0
-7 7 36 0
-1 10 37 0
-1 13 38 0
-1 16 39 0
-4 10 40 0
-4 13 41 0
-4 16 42 0
-7 10 43 0
-7 13 44 0
-7 16 45 0
-1 19 46 0
-1 22 47 0
-1 25 48 0
-4 19 49 0
-4 22 50 0
-4 25 51 0
-7 19 52 0
-7 22 53 0
-7 25 54 0
-10 1 55 0
-10 4 56 0
-10 7 57 0
-13 1 58 0
-13 4 59 0
-13 7 60 0
-16 1 61 0
-16 4 62 0
-16 7 63 0
-10 10 64 0
-10 13 65 0
-10 16 66 0
-13 10 67 0
-13 13 68 0
-13 16 69 0
-16 10 70 0
-16 13 71 0
-16 16 72 0
-10 19 73 0
-10 22 74 0
-10 25 75 0
-13 19 76 0
-13 22 77 0
-13 25 78 0
-16 19 79 0
-16 22 80 0
-16 25 81 0
-19 1 82 0
-19 4 83 0
-19 7 84 0
-22 1 85 0
-22 4 86 0
-22 7 87 0
-25 1 88 0
-25 4 89 0
-25 7 90 0
-19 10 91 0
-19 13 92 0
-19 16 93 0
-22 10 94 0
-22 13 95 0
-22 16 96 0
-25 10 97 0
-25 13 98 0
-25 16 99 0
-19 19 100 0
-19 22 101 0
-19 25 102 0
-22 19 103 0
-22 22 104 0
-22 25 105 0
-25 19 106 0
-25 22 107 0
-25 25 108 0
-2 2 28 0
-2 5 29 0
-2 8 30 0
-5 2 31 0
-5 5 32 0
-5 8 33 0
-8 2 34 0
-8 5 35 0
-8 8 36 0
-2 11 37 0
-2 14 38 0
-2 17 39 0
-5 11 40 0
-5 14 41 0
-5 17 42 0
-8 11 43 0
-8 14 44 0
-8 17 45 0
-2 20 46 0
-2 23 47 0
-2 26 48 0
-5 20 49 0
-5 23 50 0
-5 26 51 0
-8 20 52 0
-8 23 53 0
-8 26 54 0
-11 2 55 0
-11 5 56 0
-11 8 57 0
-14 2 58 0
-14 5 59 0
-14 8 60 0
-17 2 61 0
-17 5 62 0
-17 8 63 0
-11 11 64 0
-11 14 65 0
-11 17 66 0
-14 11 67 0
-14 14 68 0
-14 17 69 0
-17 11 70 0
-17 14 71 0
-17 17 72 0
-11 20 73 0
-11 23 74 0
-11 26 75 0
-14 20 76 0
-14 23 77 0
-14 26 78 0
-17 20 79 0
-17 23 80 0
-17 26 81 0
-20 2 82 0
-20 5 83 0
-20 8 84 0
-23 2 85 0
-23 5 86 0
-23 8 87 0
-26 2 88 0
-26 5 89 0
-26 8 90 0
-20 11 91 0
-20 14 92 0
-20 17 93 0
-23 11 94 0
-23 14 95 0
-23 17 96 0
-26 11 97 0
-26 14 98 0
-26 17 99 0
-20 20 100 0
-20 23 101 0
-20 26 102 0
-23 20 103 0
-23 23 104 0
-23 26 105 0
-26 20 106 0
-26 23 107 0
-26 26 108 0
-3 3 28 0
-3 6 29 0
-3 9 30 0
-6 3 31 0
-6 6 32 0
-6 9 33 0
-9 3 34 0
-9 6 35 0
-9 9 36 0
-3 12 37 0
-3 15 38 0
-3 18 39 0
-6 12 40 0
-6 15 41 0
-6 18 42 0
-9 12 43 0
-9 15 44 0
-9 18 45 0
-3 21 46 0
-3 24 47 0
-3 27 48 0
-6 21 49 0
-6 24 50 0
-6 27 51 0
-9 21 52 0
-9 24 53 0
-9 27 54 0
-12 3 55 0
-12 6 56 0
-12 9 57 0
-15 3 58 0
-15 6 59 0
-15 9 60 0
-18 3 61 0
-18 6 62 0
-18 9 63 0
-12 12 64 0
-12 15 65 0
-12 18 66 0
-15 12 67 0
-15 15 68 0
-15 18 69 0
-18 12 70 0
-18 15 71 0
-18 18 72 0
-12 21 73 0
-12 24 74 0
-12 27 75 0
-15 21 76 0
-15 24 77 0
-15 27 78 0
-18 21 79 0
-18 24 80 0
-18 27 81 0
-21 3 82 0
-21 6 83 0
-21 9 84 0
-24 3 85 0
-24 6 86 0
-24 9 87 0
-27 3 88 0
-27 6 89 0
-27 9 90 0
-21 12 91 0
-21 15 92 0
-21 18 93 0
-24 12 94 0
-24 15 95 0
-24 18 96 0
-27 12 97 0
-27 15 98 0
-27 18 99 0
-21 21 100 0
-21 24 101 0
-21 27 102 0
-24 21 103 0
-24 24 104 0
-24 27 105 0
-27 21 106 0
-27 24 107 0
-27 27 108 0
-1 -1 -28 0
-10 -1 -29 0
-19 -1 -30 0
-4 -4 -28 0
-13 -4 -29 0
-22 -4 -30 0
-7 -7 -28 0
-16 -7 -29 0
-25 -7 -30 0
-1 -10 -31 0
-10 -10 -32 0
-19 -10 -33 0
-4 -13 -31 0
-13 -13 -32 0
-22 -13 -33 0
-7 -16 -31 0
-16 -16 -32 0
-25 -16 -33 0
-1 -19 -34 0
-10 -19 -35 0
-19 -19 -36 0
-4 -22 -34 0
-13 -22 -35 0
-22 -22 -36 0
-7 -25 -34 0
-16 -25 -35 0
-25 -25 -36 0
-1 -2 -37 0
-10 -2 -38 0
-19 -2 -39 0
-4 -5 -37 0
-13 -5 -38 0
-22 -5 -39 0
-7 -8 -37 0
-16 -8 -38 0
-25 -8 -39 0
-1 -11 -40 0
-10 -11 -41 0
-19 -11 -42 0
-4 -14 -40 0
-13 -14 -41 0
-22 -14 -42 0
-7 -17 -40 0
-16 -17 -41 0
-25 -17 -42 0
-1 -20 -43 0
-10 -20 -44 0
-19 -20 -45 0
-4 -23 -43 0
-13 -23 -44 0
-22 -23 -45 0
-7 -26 -43 0
-16 -26 -44 0
-25 -26 -45 0
-1 -3 -46 0
-10 -3 -47 0
-19 -3 -48 0
-4 -6 -46 0
-13 -6 -47 0
-22 -6 -48 0
-7 -9 -46 0
-16 -9 -47 0
-25 -9 -48 0
-1 -12 -49 0
-10 -12 -50 0
-19 -12 -51 0
-4 -15 -49 0
-13 -15 -50 0
-22 -15 -51 0
-7 -18 -49 0
-16 -18 -50 0
-25 -18 -51 0
-1 -21 -52 0
-10 -21 -53 0
-19 -21 -54 0
-4 -24 -52 0
-13 -24 -53 0
-22 -24 -54 0
-7 -27 -52 0
-16 -27 -53 0
-25 -27 -54 0
-2 -1 -55 0
-11 -1 -56 0
-20 -1 -57 0
-5 -4 -55 0
-14 -4 -56 0
-23 -4 -57 0
-8 -7 -55 0
-17 -7 -56 0
-26 -7 -57 0
-2 -10 -58 0
-11 -10 -59 0
-20 -10 -60 0
-5 -13 -58 0
-14 -13 -59 0
-23 -13 -60 0
-8 -16 -58 0
-17 -16 -59 0
-26 -16 -60 0
-2 -19 -61 0
-11 -19 -62 0
-20 -19 -63 0
-5 -22 -61 0
-14 -22 -62 0
-23 -22 -63 0
-8 -25 -61 0
-17 -25 -62 0
-26 -25 -63 0
-2 -2 -64 0
-11 -2 -65 0
-20 -2 -66 0
-5 -5 -64 0
-14 -5 -65 0
-23 -5 -66 0
-8 -8 -64 0
-17 -8 -65 0
-26 -8 -66 0
-2 -11 -67 0
-11 -11 -68 0
-20 -11 -69 0
-5 -14 -67 0
-14 -14 -68 0
-23 -14 -69 0
-8 -17 -67 0
-17 -17 -68 0
-26 -17 -69 0
-2 -20 -70 0
-11 -20 -71 0
-20 -20 -72 0
-5 -23 -70 0
-14 -23 -71 0
-23 -23 -72 0
-8 -26 -70 0
-17 -26 -71 0
-26 -26 -72 0
-2 -3 -73 0
-11 -3 -74 0
-20 -3 -75 0
-5 -6 -73 0
-14 -6 -74 0
-23 -6 -75 0
-8 -9 -73 0
-17 -9 -74 0
-26 -9 -75 0
-2 -12 -76 0
-11 -12 -77 0
-20 -12 -78 0
-5 -15 -76 0
-14 -15 -77 0
-23 -15 -78 0
-8 -18 -76 0
-17 -18 -77 0
-26 -18 -78 0
-2 -21 -79 0
-11 -21 -80 0
-20 -21 -81 0
-5 -24 -79 0
-14 -24 -80 0
-23 -24 -81 0
-8 -27 -79 0
-17 -27 -80 0
-26 -27 -81 0
-3 -1 -82 0
-12 -1 -83 0
-21 -1 -84 0
-6 -4 -82 0
-15 -4 -83 0
-24 -4 -84 0
-9 -7 -82 0
-18 -7 -83 0
-27 -7 -84 0
-3 -10 -85 0
-12 -10 -86 0
-21 -10 -87 0
-6 -13 -85 0
-15 -13 -86 0
-24 -13 -87 0
-9 -16 -85 0
-18 -16 -86 0
-27 -16 -87 0
-3 -19 -88 0
-12 -19 -89 0
-21 -19 -90 0
-6 -22 -88 0
-15 -22 -89 0
-24 -22 -90 0
-9 -25 -88 0
-18 -25 -89 0
-27 -25 -90 0
-3 -2 -91 0
-12 -2 -92 0
-21 -2 -93 0
-6 -5 -91 0
-15 -5 -92 0
-24 -5 -93 0
-9 -8 -91 0
-18 -8 -92 0
-27 -8 -93 0
-3 -11 -94 0
-12 -11 -95 0
-21 -11 -96 0
-6 -14 -94 0
-15 -14 -95 0
-24 -14 -96 0
-9 -17 -94 0
-18 -17 -95 0
-27 -17 -96 0
-3 -20 -97 0
-12 -20 -98 0
-21 -20 -99 0
-6 -23 -97 0
-15 -23 -98 0
-24 -23 -99 0
-9 -26 -97 0
-18 -26 -98 0
-27 -26 -99 0
-3 -3 -100 0
-12 -3 -101 0
-21 -3 -102 0
-6 -6 -100 0
-15 -6 -101 0
-24 -6 -102 0
-9 -9 -100 0
-18 -9 -101 0
-27 -9 -102 0
-3 -12 -103 0
-12 -12 -104 0
-21 -12 -105 0
-6 -15 -103 0
-15 -15 -104 0
-24 -15 -105 0
-9 -18 -103 0
-18 -18 -104 0
-27 -18 -105 0
-3 -21 -106 0
-12 -21 -107 0
-21 -21 -108 0
-6 -24 -106 0
-15 -24 -107 0
-24 -24 -108 0
-9 -27 -106 0
-18 -27 -107 0
-27 -27 -108 0
-1 1 109 0
-1 4 110 0
-1 7 111 0
-1 10 112 0
-1 13 113 0
-1 16 114 0
-1 19 115 0
-1 22 116 0
-1 25 117 0
-4 1 118 0
-4 4 119 0
-4 7 120 0
-4 10 121 0
-4 13 122 0
-4 16 123 0
-4 19 124 0
-4 22 125 0
-4 25 126 0
-7 1 127 0
-7 4 128 0
-7 7 129 0
-7 10 130 0
-7 13 131 0
-7 16 132 0
-7 19 133 0
-7 22 134 0
-7 25 135 0
-10 1 136 0
-10 4 137 0
-10 7 138 0
-10 10 139 0
-10 13 140 0
-10 16 141 0
-10 19 142 0
-10 22 143 0
-10 25 144 0
-13 1 145 0
-13 4 146 0
-13 7 147 0
-13 10 148 0
-13 13 149 0
-13 16 150 0
-13 19 151 0
-13 22 152 0
-13 25 153 0
-16 1 154 0
-16 4 155 0
-16 7 156 0
-16 10 157 0
-16 13 158 0
-16 16 159 0
-16 19 160 0
-16 22 161 0
-16 25 162 0
-19 1 163 0
-19 4 164 0
-19 7 165 0
-19 10 166 0
-19 13 167 0
-19 16 168 0
-19 19 169 0
-19 22 170 0
-19 25 171 0
-22 1 172 0
-22 4 173 0
-22 7 174 0
-22 10 175 0
-22 13 176 0
-22 16 177 0
-22 19 178 0
-22 22 179 0
-22 25 180 0
-25 1 181 0
-25 4 182 0
-25 7 183 0
-25 10 184 0
-25 13 185 0
-25 16 186 0
-25 19 187 0
-25 22 188 0
-25 25 189 0
-2 2 109 0
-2 5 110 0
-2 8 111 0
-2 11 112 0
-2 14 113 0
-2 17 114 0
-2 20 115 0
-2 23 116 0
-2 26 117 0
-5 2 118 0
-5 5 119 0
-5 8 120 0
-5 11 121 0
-5 14 122 0
-5 17 123 0
-5 20 124 0
-5 23 125 0
-5 26 126 0
-8 2 127 0
-8 5 128 0
-8 8 129 0
-8 11 130 0
-8 14 131 0
-8 17 132 0
-8 20 133 0
-8 23 134 0
-8 26 135 0
-11 2 136 0
-11 5 137 0
-11 8 138 0
-11 11 139 0
-11 14 140 0
-11 17 141 0
-11 20 142 0
-11 23 143 0
-11 26 144 0
-14 2 145 0
-14 5 146 0
-14 8 147 0
-14 11 148 0
-14 14 149 0
-14 17 150 0
-14 20 151 0
-14 23 152 0
-14 26 153 0
-17 2 154 0
-17 5 155 0
-17 8 156 0
-17 11 157 0
-17 14 158 0
-17 17 159 0
-17 20 160 0
-17 23 161 0
-17 26 162 0
-20 2 163 0
-20 5 164 0
-20 8 165 0
-20 11 166 0
-20 14 167 0
-20 17 168 0
-20 20 169 0
-20 23 170 0
-20 26 171 0
-23 2 172 0
-23 5 173 0
-23 8 174 0
-23 11 175 0
-23 14 176 0
-23 17 177 0
-23 20 178 0
-23 23 179 0
-23 26 180 0
-26 2 181 0
-26 5 182 0
-26 8 183 0
-26 11 184 0
-26 14 185 0
-26 17 186 0
-26 20 187 0
-26 23 188 0
-26 26 189 0
-3 3 109 0
-3 6 110 0
-3 9 111 0
-3 12 112 0
-3 15 113 0
-3 18 114 0
-3 21 115 0
-3 24 116 0
-3 27 117 0
-6 3 118 0
-6 6 119 0
-6 9 120 0
-6 12 121 0
-6 15 122 0
-6 18 123 0
-6 21 124 0
-6 24 125 0
-6 27 126 0
-9 3 127 0
-9 6 128 0
-9 9 129 0
-9 12 130 0
-9 15 131 0
-9 18 132 0
-9 21 133 0
-9 24 134 0
-9 27 135 0
-12 3 136 0
-12 6 137 0
-12 9 138 0
-12 12 139 0
-12 15 140 0
-12 18 141 0
-12 21 142 0
-12 24 143 0
-12 27 144 0
-15 3 145 0
-15 6 146 0
-15 9 147 0
-15 12 148 0
-15 15 149 0
-15 18 150 0
-15 21 151 0
-15 24 152 0
-15 27 153 0
-18 3 154 0
-18 6 155 0
-18 9 156 0
-18 12 157 0
-18 15 158 0
-18 18 159 0
-18 21 160 0
-18 24 161 0
-18 27 162 0
-21 3 163 0
-21 6 164 0
-21 9 165 0
-21 12 166 0
-21 15 167 0
-21 18 168 0
-21 21 169 0
-21 24 170 0
-21 27 171 0
-24 3 172 0
-24 6 173 0
-24 9 174 0
-24 12 175 0
-24 15 176 0
-24 18 177 0
-24 21 178 0
-24 24 179 0
-24 27 180 0
-27 3 181 0
-27 6 182 0
-27 9 183 0
-27 12 184 0
-27 15 185 0
-27 18 186 0
-27 21 187 0
-27 24 188 0
-27 27 189 0
-1 -1 190 0
-4 -1 191 0
-7 -1 192 0
-1 -4 193 0
-4 -4 194 0
-7 -4 195 0
-1 -7 196 0
-4 -7 197 0
-7 -7 198 0
-10 -10 190 0
-13 -10 191 0
-16 -10 192 0
-10 -13 193 0
-13 -13 194 0
-16 -13 195 0
-10 -16 196 0
-13 -16 197 0
-16 -16 198 0
-19 -19 190 0
-22 -19 191 0
-25 -19 192 0
-19 -22 193 0
-22 -22 194 0
-25 -22 195 0
-19 -25 196 0
-22 -25 197 0
-25 -25 198 0
-1 -2 199 0
-4 -2 200 0
-7 -2 201 0
-1 -5 202 0
-4 -5 203 0
-7 -5 204 0
-1 -8 205 0
-4 -8 206 0
-7 -8 207 0
-10 -11 199 0
-13 -11 200 0
-16 -11 201 0
-10 -14 202 0
-13 -14 203 0
-16 -14 204 0
-10 -17 205 0
-13 -17 206 0
-16 -17 207 0
-19 -20 199 0
-22 -20 200 0
-25 -20 201 0
-19 -23 202 0
-22 -23 203 0
-25 -23 204 0
-19 -26 205 0
-22 -26 206 0
-25 -26 207 0
-1 -3 208 0
-4 -3 209 0
-7 -3 210 0
-1 -6 211 0
-4 -6 212 0
-7 -6 213 0
-1 -9 214 0
-4 -9 215 0
-7 -9 216 0
-10 -12 208 0
-13 -12 209 0
-16 -12 210 0
-10 -15 211 0
-13 -15 212 0
-16 -15 213 0
-10 -18 214 0
-13 -18 215 0
-16 -18 216 0
-19 -21 208 0
-22 -21 209 0
-25 -21 210 0
-19 -24 211 0
-22 -24 212 0
-25 -24 213 0
-19 -27 214 0
-22 -27 215 0
-25 -27 216 0
-2 -1 217 0
-5 -1 218 0
-8 -1 219 0
-2 -4 220 0
-5 -4 221 0
-8 -4 222 0
-2 -7 223 0
-5 -7 224 0
-8 -7 225 0
-11 -10 217 0
-14 -10 218 0
-17 -10 219 0
-11 -13 220 0
-14 -13 221 0
-17 -13 222 0
-11 -16 223 0
-14 -16 224 0
-17 -16 225 0
-20 -19 217 0
-23 -19 218 0
-26 -19 219 0
-20 -22 220 0
-23 -22 221 0
-26 -22 222 0
-20 -25 223 0
-23 -25 224 0
-26 -25 225 0
-2 -2 226 0
-5 -2 227 0
-8 -2 228 0
-2 -5 229 0
-5 -5 230 0
-8 -5 231 0
-2 -8 232 0
-5 -8 233 0
-8 -8 234 0
-11 -11 226 0
-14 -11 227 0
-17 -11 228 0
-11 -14 229 0
-14 -14 230 0
-17 -14 231 0
-11 -17 232 0
-14 -17 233 0
-17 -17 234 0
-20 -20 226 0
-23 -20 227 0
-26 -20 228 0
-20 -23 229 0
-23 -23 230 0
-26 -23 231 0
-20 -26 232 0
-23 -26 233 0
-26 -26 234 0
-2 -3 235 0
-5 -3 236 0
-8 -3 237 0
-2 -6 238 0
-5 -6 239 0
-8 -6 240 0
-2 -9 241 0
-5 -9 242 0
-8 -9 243 0
-11 -12 235 0
-14 -12 236 0
-17 -12 237 0
-11 -15 238 0
-14 -15 239 0
-17 -15 240 0
-11 -18 241 0
-14 -18 242 0
-17 -18 243 0
-20 -21 235 0
-23 -21 236 0
-26 -21 237 0
-20 -24 238 0
-23 -24 239 0
-26 -24 240 0
-20 -27 241 0
-23 -27 242 0
-26 -27 243 0
-3 -1 244 0
-6 -1 245 0
-9 -1 246 0
-3 -4 247 0
-6 -4 248 0
-9 -4 249 0
-3 -7 250 0
-6 -7 251 0
-9 -7 252 0
-12 -10 244 0
-15 -10 245 0
-18 -10 246 0
-12 -13 247 0
-15 -13 248 0
-18 -13 249 0
-12 -16 250 0
-15 -16 251 0
-18 -16 252 0
-21 -19 244 0
-24 -19 245 0
-27 -19 246 0
-21 -22 247 0
-24 -22 248 0
-27 -22 249 0
-21 -25 250 0
-24 -25 251 0
-27 -25 252 0
-3 -2 253 0
-6 -2 254 0
-9 -2 255 0
-3 -5 256 0
-6 -5 257 0
-9 -5 258 0
-3 -8 259 0
-6 -8 260 0
-9 -8 261 0
-12 -11 253 0
-15 -11 254 0
-18 -11 255 0
-12 -14 256 0
-15 -14 257 0
-18 -14 258 0
-12 -17 259 0
-15 -17 260 0
-18 -17 261 0
-21 -20 253 0
-24 -20 254 0
-27 -20 255 0
-21 -23 256 0
-24 -23 257 0
-27 -23 258 0
-21 -26 259 0
-24 -26 260 0
-27 -26 261 0
-3 -3 262 0
-6 -3 263 0
-9 -3 264 0
-3 -6 265 0
-6 -6 266 0
-9 -6 267 0
-3 -9 268 0
-6 -9 269 0
-9 -9 270 0
-12 -12 262 0
-15 -12 263 0
-18 -12 264 0
-12 -15 265 0
-15 -15 266 0
-18 -15 267 0
-12 -18 268 0
-15 -18 269 0
-18 -18 270 0
-21 -21 262 0
-24 -21 263 0
-27 -21 264 0
-21 -24 265 0
-24 -24 266 0
-27 -24 267 0
-21 -27 268 0
-24 -27 269 0
-27 -27 270 0
-1 -1 271 0
-1 -4 272 0
-1 -7 273 0
-10 -10 271 0
-10 -13 272 0
-10 -16 273 0
-19 -19 271 0
-19 -22 272 0
-19 -25 273 0
-4 -1 274 0
-4 -4 275 0
-4 -7 276 0
-13 -10 274 0
-13 -13 275 0
-13 -16 276 0
-22 -19 274 0
-22 -22 275 0
-22 -25 276 0
-7 -1 277 0
-7 -4 278 0
-7 -7 279 0
-16 -10 277 0
-16 -13 278 0
-16 -16 279 0
-25 -19 277 0
-25 -22 278 0
-25 -25 279 0
-1 -2 280 0
-1 -5 281 0
-1 -8 282 0
-10 -11 280 0
-10 -14 281 0
-10 -17 282 0
-19 -20 280 0
-19 -23 281 0
-19 -26 282 0
-4 -2 283 0
-4 -5 284 0
-4 -8 285 0
-13 -11 283 0
-13 -14 284 0
-13 -17 285 0
-22 -20 283 0
-22 -23 284 0
-22 -26 285 0
-7 -2 286 0
-7 -5 287 0
-7 -8 288 0
-16 -11 286 0
-16 -14 287 0
-16 -17 288 0
-25 -20 286 0
-25 -23 287 0
-25 -26 288 0
-1 -3 289 0
-1 -6 290 0
-1 -9 291 0
-10 -12 289 0
-10 -15 290 0
-10 -18 291 0
-19 -21 289 0
-19 -24 290 0
-19 -27 291 0
-4 -3 292 0
-4 -6 293 0
-4 -9 294 0
-13 -12 292 0
-13 -15 293 0
-13 -18 294 0
-22 -21 292 0
-22 -24 293 0
-22 -27 294 0
-7 -3 295 0
-7 -6 296 0
-7 -9 297 0
-16 -12 295 0
-16 -15 296 0
-16 -18 297 0
-25 -21 295 0
-25 -24 296 0
-25 -27 297 0
-2 -1 298 0
-2 -4 299 0
-2 -7 300 0
-11 -10 298 0
-11 -13 299 0
-11 -16 300 0
-20 -19 298 0
-20 -22 299 0
-20 -25 300 0
-5 -1 301 0
-5 -4 302 0
-5 -7 303 0
-14 -10 301 0
-14 -13 302 0
-14 -16 303 0
-23 -19 301 0
-23 -22 302 0
-23 -25 303 0
-8 -1 304 0
-8 -4 305 0
-8 -7 306 0
-17 -10 304 0
-17 -13 305 0
-17 -16 306 0
-26 -19 304 0
-26 -22 305 0
-26 -25 306 0
-2 -2 307 0
-2 -5 308 0
-2 -8 309 0
-11 -11 307 0
-11 -14 308 0
-11 -17 309 0
-20 -20 307 0
-20 -23 308 0
-20 -26 309 0
-5 -2 310 0
-5 -5 311 0
-5 -8 312 0
-14 -11 310 0
-14 -14 311 0
-14 -17 312 0
-23 -20 310 0
-23 -23 311 0
-23 -26 312 0
-8 -2 313 0
-8 -5 314 0
-8 -8 315 0
-17 -11 313 0
-17 -14 314 0
-17 -17 315 0
-26 -20 313 0
-26 -23 314 0
-26 -26 315 0
-2 -3 316 0
-2 -6 317 0
-2 -9 318 0
-11 -12 316 0
-11 -15 317 0
-11 -18 318 0
-20 -21 316 0
-20 -24 317 0
-20 -27 318 0
-5 -3 319 0
-5 -6 320 0
-5 -9 321 0
-14 -12 319 0
-14 -15 320 0
-14 -18 321 0
-23 -21 319 0
-23 -24 320 0
-23 -27 321 0
-8 -3 322 0
-8 -6 323 0
-8 -9 324 0
-17 -12 322 0
-17 -15 323 0
-17 -18 324 0
-26 -21 322 0
-26 -24 323 0
-26 -27 324 0
-3 -1 325 0
-3 -4 326 0
-3 -7 327 0
-12 -10 325 0
-12 -13 326 0
-12 -16 327 0
-21 -19 325 0
-21 -22 326 0
-21 -25 327 0
-6 -1 328 0
-6 -4 329 0
-6 -7 330 0
-15 -10 328 0
-15 -13 329 0
-15 -16 330 0
-24 -19 328 0
-24 -22 329 0
-24 -25 330 0
-9 -1 331 0
-9 -4 332 0
-9 -7 333 0
-18 -10 331 0
-18 -13 332 0
-18 -16 333 0
-27 -19 331 0
-27 -22 332 0
-27 -25 333 0
-3 -2 334 0
-3 -5 335 0
-3 -8 336 0
-12 -11 334 0
-12 -14 335 0
-12 -17 336 0
-21 -20 334 0
-21 -23 335 0
-21 -26 336 0
-6 -2 337 0
-6 -5 338 0
-6 -8 339 0
-15 -11 337 0
-15 -14 338 0
-15 -17 339 0
-24 -20 337 0
-24 -23 338 0
-24 -26 339 0
-9 -2 340 0
-9 -5 341 0
-9 -8 342 0
-18 -11 340 0
-18 -14 341 0
-18 -17 342 0
-27 -20 340 0
-27 -23 341 0
-27 -26 342 0
-3 -3 343 0
-3 -6 344 0
-3 -9 345 0
-12 -12 343 0
-12 -15 344 0
-12 -18 345 0
-21 -21 343 0
-21 -24 344 0
-21 -27 345 0
-6 -3 346 0
-6 -6 347 0
-6 -9 348 0
-15 -12 346 0
-15 -15 347 0
-15 -18 348 0
-24 -21 346 0
-24 -24 347 0
-24 -27 348 0
-9 -3 349 0
-9 -6 350 0
-9 -9 351 0
-18 -12 349 0
-18 -15 350 0
-18 -18 351 0
-27 -21 349 0
-27 -24 350 0
-27 -27 351 0
-109 -190 -271 0
-109 -191 -272 0
-109 -192 -273 0
-109 -193 -274 0
-109 -194 -275 0
-109 -195 -276 0
-109 -196 -277 0
-109 -197 -278 0
-109 -198 -279 0
-110 -190 -280 0
-110 -191 -281 0
-110 -192 -282 0
-110 -193 -283 0
-110 -194 -284 0
-110 -195 -285 0
-110 -196 -286 0
-110 -197 -287 0
-110 -198 -288 0
-111 -190 -289 0
-111 -191 -290 0
-111 -192 -291 0
-111 -193 -292 0
-111 -194 -293 0
-111 -195 -294 0
-111 -196 -295 0
-111 -197 -296 0
-111 -198 -297 0
-112 -199 -271 0
-112 -200 -272 0
-112 -201 -273 0
-112 -202 -274 0
-112 -203 -275 0
-112 -204 -276 0
-112 -205 -277 0
-112 -206 -278 0
-112 -207 -279 0
-113 -199 -280 0
-113 -200 -281 0
-113 -201 -282 0
-113 -202 -283 0
-113 -203 -284 0
-113 -204 -285 0
-113 -205 -286 0
-113 -206 -287 0
-113 -207 -288 0
-114 -199 -289 0
-114 -200 -290 0
-114 -201 -291 0
-114 -202 -292 0
-114 -203 -293 0
-114 -204 -294 0
-114 -205 -295 0
-114 -206 -296 0
-114 -207 -297 0
-115 -208 -271 0
-115 -209 -272 0
-115 -210 -273 0
-115 -211 -274 0
-115 -212 -275 0
-115 -213 -276 0
-115 -214 -277 0
-115 -215 -278 0
-115 -216 -279 0
-116 -208 -280 0
-116 -209 -281 0
-116 -210 -282 0
-116 -211 -283 0
-116 -212 -284 0
-116 -213 -285 0
-116 -214 -286 0
-116 -215 -287 0
-116 -216 -288 0
-117 -208 -289 0
-117 -209 -290 0
-117 -210 -291 0
-117 -211 -292 0
-117 -212 -293 0
-117 -213 -294 0
-117 -214 -295 0
-117 -215 -296 0
-117 -216 -297 0
-118 -190 -298 0
-118 -191 -299 0
-118 -192 -300 0
-118 -193 -301 0
-118 -194 -302 0
-118 -195 -303 0
-118 -196 -304 0
-118 -197 -305 0
-118 -198 -306 0
-119 -190 -307 0
-119 -191 -308 0
-119 -192 -309 0
-119 -193 -310 0
-119 -194 -311 0
-119 -195 -312 0
-119 -196 -313 0
-119 -197 -314 0
-119 -198 -315 0
-120 -190 -316 0
-120 -191 -317 0
-120 -192 -318 0
-120 -193 -319 0
-120 -194 -320 0
-120 -195 -321 0
-120 -196 -322 0
-120 -197 -323 0
-120 -198 -324 0
-121 -199 -298 0
-121 -200 -299 0
-121 -201 -300 0
-121 -202 -301 0
-121 -203 -302 0
-121 -204 -303 0
-121 -205 -304 0
-121 -206 -305 0
-121 -207 -306 0
-122 -199 -307 0
-122 -200 -308 0
-122 -201 -309 0
-122 -202 -310 0
-122 -203 -311 0
-122 -204 -312 0
-122 -205 -313 0
-122 -206 -314 0
-122 -207 -315 0
-123 -199 -316 0
-123 -200 -317 0
-123 -201 -318 0
-123 -202 -319 0
-123 -203 -320 0
-123 -204 -321 0
-123 -205 -322 0
-123 -206 -323 0
-123 -207 -324 0
-124 -208 -298 0
-124 -209 -299 0
-124 -210 -300 0
-124 -211 -301 0
-124 -212 -302 0
-124 -213 -303 0
-124 -214 -304 0
-124 -215 -305 0
-124 -216 -306 0
-125 -208 -307 0
-125 -209 -308 0
-125 -210 -309 0
-125 -211 -310 0
-125 -212 -311 0
-125 -213 -312 0
-125 -214 -313 0
-125 -215 -314 0
-125 -216 -315 0
-126 -208 -316 0
-126 -209 -317 0
-126 -210 -318 0
-126 -211 -319 0
-126 -212 -320 0
-126 -213 -321 0
-126 -214 -322 0
-126 -215 -323 0
-126 -216 -324 0
-127 -190 -325 0
-127 -191 -326 0
-127 -192 -327 0
-127 -193 -328 0
-127 -194 -329 0
-127 -195 -330 0
-127 -196 -331 0
-127 -197 -332 0
-127 -198 -333 0
-128 -190 -334 0
-128 -191 -335 0
-128 -192 -336 0
-128 -193 -337 0
-128 -194 -338 0
-128 -195 -339 0
-128 -196 -340 0
-128 -197 -341 0
-128 -198 -342 0
-129 -190 -343 0
-129 -191 -344 0
-129 -192 -345 0
-129 -193 -346 0
-129 -194 -347 0
-129 -195 -348 0
-129 -196 -349 0
-129 -197 -350 0
-129 -198 -351 0
-130 -199 -325 0
-130 -200 -326 0
-130 -201 -327 0
-130 -202 -328 0
-130 -203 -329 0
-130 -204 -330 0
-130 -205 -331 0
-130 -206 -332 0
-130 -207 -333 0
-131 -199 -334 0
-131 -200 -335 0
-131 -201 -336 0
-131 -202 -337 0
-131 -203 -338 0
-131 -204 -339 0
-131 -205 -340 0
-131 -206 -341 0
-131 -207 -342 0
-132 -199 -343 0
-132 -200 -344 0
-132 -201 -345 0
-132 -202 -346 0
-132 -203 -347 0
-132 -204 -348 0
-132 -205 -349 0
-132 -206 -350 0
-132 -207 -351 0
-133 -208 -325 0
-133 -209 -326 0
-133 -210 -327 0
-133 -211 -328 0
-133 -212 -329 0
-133 -213 -330 0
-133 -214 -331 0
-133 -215 -332 0
-133 -216 -333 0
-134 -208 -334 0
-134 -209 -335 0
-134 -210 -336 0
-134 -211 -337 0
-134 -212 -338 0
-134 -213 -339 0
-134 -214 -340 0
-134 -215 -341 0
-134 -216 -342 0
-135 -208 -343 0
-135 -209 -344 0
-135 -210 -345 0
-135 -211 -346 0
-135 -212 -347 0
-135 -213 -348 0
-135 -214 -349 0
-135 -215 -350 0
-135 -216 -351 0
-136 -217 -271 0
-136 -218 -272 0
-136 -219 -273 0
-136 -220 -274 0
-136 -221 -275 0
-136 -222 -276 0
-136 -223 -277 0
-136 -224 -278 0
-136 -225 -279 0
-137 -217 -280 0
-137 -218 -281 0
-137 -219 -282 0
-137 -220 -283 0
-137 -221 -284 0
-137 -222 -285 0
-137 -223 -286 0
-137 -224 -287 0
-137 -225 -288 0
-138 -217 -289 0
-138 -218 -290 0
-138 -219 -291 0
-138 -220 -292 0
-138 -221 -293 0
-138 -222 -294 0
-138 -223 -295 0
-138 -224 -296 0
-138 -225 -297 0
-139 -226 -271 0
-139 -227 -272 0
-139 -228 -273 0
-139 -229 -274 0
-139 -230 -275 0
-139 -231 -276 0
-139 -232 -277 0
-139 -233 -278 0
-139 -234 -279 0
-140 -226 -280 0
-140 -227 -281 0
-140 -228 -282 0
-140 -229 -283 0
-140 -230 -284 0
-140 -231 -285 0
-140 -232 -286 0
-140 -233 -287 0
-140 -234 -288 0
-141 -226 -289 0
-141 -227 -290 0
-141 -228 -291 0
-141 -229 -292 0
-141 -230 -293 0
-141 -231 -294 0
-141 -232 -295 0
-141 -233 -296 0
-141 -234 -297 0
-142 -235 -271 0
-142 -236 -272 0
-142 -237 -273 0
-142 -238 -274 0
-142 -239 -275 0
-142 -240 -276 0
-142 -241 -277 0
-142 -242 -278 0
-142 -243 -279 0
-143 -235 -280 0
-143 -236 -281 0
-143 -237 -282 0
-143 -238 -283 0
-143 -239 -284 0
-143 -240 -285 0
-143 -241 -286 0
-143 -242 -287 0
-143 -243 -288 0
-144 -235 -289 0
-144 -236 -290 0
-144 -237 -291 0
-144 -238 -292 0
-144 -239 -293 0
-144 -240 -294 0
-144 -241 -295 0
-144 -242 -296 0
-144 -243 -297 0
-145 -217 -298 0
-145 -218 -299 0
-145 -219 -300 0
-145 -220 -301 0
-145 -221 -302 0
-145 -222 -303 0
-145 -223 -304 0
-145 -224 -305 0
-145 -225 -306 0
-146 -217 -307 0
-146 -218 -308 0
-146 -219 -309 0
-146 -220 -310 0
-146 -221 -311 0
-146 -222 -312 0
-146 -223 -313 0
-146 -224 -314 0
-146 -225 -315 0
-147 -217 -316 0
-147 -218 -317 0
-147 -219 -318 0
-147 -220 -319 0
-147 -221 -320 0
-147 -222 -321 0
-147 -223 -322 0
-147 -224 -323 0
-147 -225 -324 0
-148 -226 -298 0
-148 -227 -299 0
-148 -228 -300 0
-148 -229 -301 0
-148 -230 -302 0
-148 -231 -303 0
-148 -232 -304 0
-148 -233 -305 0
-148 -234 -306 0
-149 -226 -307 0
-149 -227 -308 0
-149 -228 -309 0
-149 -229 -310 0
-149 -230 -311 0
-149 -231 -312 0
-149 -232 -313 0
-149 -233 -314 0
-149 -234 -315 0
-150 -226 -316 0
-150 -227 -317 0
-150 -228 -318 0
-150 -229 -319 0
-150 -230 -320 0
-150 -231 -321 0
-150 -232 -322 0
-150 -233 -323 0
-150 -234 -324 0
-151 -235 -298 0
-151 -236 -299 0
-151 -237 -300 0
-151 -238 -301 0
-151 -239 -302 0
-151 -240 -303 0
-151 -241 -304 0
-151 -242 -305 0
-151 -243 -306 0
-152 -235 -307 0
-152 -236 -308 0
-152 -237 -309 0
-152 -238 -310 0
-152 -239 -311 0
-152 -240 -312 0
-152 -241 -313 0
-152 -242 -314 0
-152 -243 -315 0
-153 -235 -316 0
-153 -236 -317 0
-153 -237 -318 0
-153 -238 -319 0
-153 -239 -320 0
-153 -240 -321 0
-153 -241 -322 0
-153 -242 -323 0
-153 -243 -324 0
-154 -217 -325 0
-154 -218 -326 0
-154 -219 -327 0
-154 -220 -328 0
-154 -221 -329 0
-154 -222 -330 0
-154 -223 -331 0
-154 -224 -332 0
-154 -225 -333 0
-155 -217 -334 0
-155 -218 -335 0
-155 -219 -336 0
-155 -220 -337 0
-155 -221 -338 0
-155 -222 -339 0
-155 -223 -340 0
-155 -224 -341 0
-155 -225 -342 0
-156 -217 -343 0
-156 -218 -344 0
-156 -219 -345 0
-156 -220 -346 0
-156 -221 -347 0
-156 -222 -348 0
-156 -223 -349 0
-156 -224 -350 0
-156 -225 -351 0
-157 -226 -325 0
-157 -227 -326 0
-157 -228 -327 0
-157 -229 -328 0
-157 -230 -329 0
-157 -231 -330 0
-157 -232 -331 0
-157 -233 -332 0
-157 -234 -333 0
-158 -226 -334 0
-158 -227 -335 0
-158 -228 -336 0
-158 -229 -337 0
-158 -230 -338 0
-158 -231 -339 0
-158 -232 -340 0
-158 -233 -341 0
-158 -234 -342 0
-159 -226 -343 0
-159 -227 -344 0
-159 -228 -345 0
-159 -229 -346 0
-159 -230 -347 0
-159 -231 -348 0
-159 -232 -349 0
-159 -233 -350 0
-159 -234 -351 0
-160 -235 -325 0
-160 -236 -326 0
-160 -237 -327 0
-160 -238 -328 0
-160 -239 -329 0
-160 -240 -330 0
-160 -241 -331 0
-160 -242 -332 0
-160 -243 -333 0
-161 -235 -334 0
-161 -236 -335 0
-161 -237 -336 0
-161 -238 -337 0
-161 -239 -338 0
-161 -240 -339 0
-161 -241 -340 0
-161 -242 -341 0
-161 -243 -342 0
-162 -235 -343 0
-162 -236 -344 0
-162 -237 -345 0
-162 -238 -346 0
-162 -239 -347 0
-162 -240 -348 0
-162 -241 -349 0
-162 -242 -350 0
-162 -243 -351 0
-163 -244 -271 0
-163 -245 -272 0
-163 -246 -273 0
-163 -247 -274 0
-163 -248 -275 0
-163 -249 -276 0
-163 -250 -277 0
-163 -251 -278 0
-163 -252 -279 0
-164 -244 -280 0
-164 -245 -281 0
-164 -246 -282 0
-164 -247 -283 0
-164 -248 -284 0
-164 -249 -285 0
-164 -250 -286 0
-164 -251 -287 0
-164 -252 -288 0
-165 -244 -289 0
-165 -245 -290 0
-165 -246 -291 0
-165 -247 -292 0
-165 -248 -293 0
-165 -249 -294 0
-165 -250 -295 0
-165 -251 -296 0
-165 -252 -297 0
-166 -253 -271 0
-166 -254 -272 0
-166 -255 -273 0
-166 -256 -274 0
-166 -257 -275 0
-166 -258 -276 0
-166 -259 -277 0
-166 -260 -278 0
-166 -261 -279 0
-167 -253 -280 0
-167 -254 -281 0
-167 -255 -282 0
-167 -256 -283 0
-167 -257 -284 0
-167 -258 -285 0
-167 -259 -286 0
-167 -260 -287 0
-167 -261 -288 0
-168 -253 -289 0
-168 -254 -290 0
-168 -255 -291 0
-168 -256 -292 0
-168 -257 -293 0
-168 -258 -294 0
-168 -259 -295 0
-168 -260 -296 0
-168 -261 -297 0
-169 -262 -271 0
-169 -263 -272 0
-169 -264 -273 0
-169 -265 -274 0
-169 -266 -275 0
-169 -267 -276 0
-169 -268 -277 0
-169 -269 -278 0
-169 -270 -279 0
-170 -262 -280 0
-170 -263 -281 0
-170 -264 -282 0
-170 -265 -283 0
-170 -266 -284 0
-170 -267 -285 0
-170 -268 -286 0
-170 -269 -287 0
-170 -270 -288 0
-171 -262 -289 0
-171 -263 -290 0
-171 -264 -291 0
-171 -265 -292 0
-171 -266 -293 0
-171 -267 -294 0
-171 -268 -295 0
-171 -269 -296 0
-171 -270 -297 0
-172 -244 -298 0
-172 -245 -299 0
-172 -246 -300 0
-172 -247 -301 0
-172 -248 -302 0
-172 -249 -303 0
-172 -250 -304 0
-172 -251 -305 0
-172 -252 -306 0
-173 -244 -307 0
-173 -245 -308 0
-173 -246 -309 0
-173 -247 -310 0
-173 -248 -311 0
-173 -249 -312 0
-173 -250 -313 0
-173 -251 -314 0
-173 -252 -315 0
-174 -244 -316 0
-174 -245 -317 0
-174 -246 -318 0
-174 -247 -319 0
-174 -248 -320 0
-174 -249 -321 0
-174 -250 -322 0
-174 -251 -323 0
-174 -252 -324 0
-175 -253 -298 0
-175 -254 -299 0
-175 -255 -300 0
-175 -256 -301 0
-175 -257 -302 0
-175 -258 -303 0
-175 -259 -304 0
-175 -260 -305 0
-175 -261 -306 0
-176 -253 -307 0
-176 -254 -308 0
-176 -255 -309 0
-176 -256 -310 0
-176 -257 -311 0
-176 -258 -312 0
-176 -259 -313 0
-176 -260 -314 0
-176 -261 -315 0
-177 -253 -316 0
-177 -254 -317 0
-177 -255 -318 0
-177 -256 -319 0
-177 -257 -320 0
-177 -258 -321 0
-177 -259 -322 0
-177 -260 -323 0
-177 -261 -324 0
-178 -262 -298 0
-178 -263 -299 0
-178 -264 -300 0
-178 -265 -301 0
-178 -266 -302 0
-178 -267 -303 0
-178 -268 -304 0
-178 -269 -305 0
-178 -270 -306 0
-179 -262 -307 0
-179 -263 -308 0
-179 -264 -309 0
-179 -265 -310 0
-179 -266 -311 0
-179 -267 -312 0
-179 -268 -313 0
-179 -269 -314 0
-179 -270 -315 0
-180 -262 -316 0
-180 -263 -317 0
-180 -264 -318 0
-180 -265 -319 0
-180 -266 -320 0
-180 -267 -321 0
-180 -268 -322 0
-180 -269 -323 0
-180 -270 -324 0
-181 -244 -325 0
-181 -245 -326 0
-181 -246 -327 0
-181 -247 -328 0
-181 -248 -329 0
-181 -249 -330 0
-181 -250 -331 0
-181 -251 -332 0
-181 -252 -333 0
-182 -244 -334 0
-182 -245 -335 0
-182 -246 -336 0
-182 -247 -337 0
-182 -248 -338 0
-182 -249 -339 0
-182 -250 -340 0
-182 -251 -341 0
-182 -252 -342 0
-183 -244 -343 0
-183 -245 -344 0
-183 -246 -345 0
-183 -247 -346 0
-183 -248 -347 0
-183 -249 -348 0
-183 -250 -349 0
-183 -251 -350 0
-183 -252 -351 0
-184 -253 -325 0
-184 -254 -326 0
-184 -255 -327 0
-184 -256 -328 0
-184 -257 -329 0
-184 -258 -330 0
-184 -259 -331 0
-184 -260 -332 0
-184 -261 -333 0
-185 -253 -334 0
-185 -254 -335 0
-185 -255 -336 0
-185 -256 -337 0
-185 -257 -338 0
-185 -258 -339 0
-185 -259 -340 0
-185 -260 -341 0
-185 -261 -342 0
-186 -253 -343 0
-186 -254 -344 0
-186 -255 -345 0
-186 -256 -346 0
-186 -257 -347 0
-186 -258 -348 0
-186 -259 -349 0
-186 -260 -350 0
-186 -261 -351 0
-187 -262 -325 0
-187 -263 -326 0
-187 -264 -327 0
-187 -265 -328 0
-187 -266 -329 0
-187 -267 -330 0
-187 -268 -331 0
-187 -269 -332 0
-187 -270 -333 0
-188 -262 -334 0
-188 -263 -335 0
-188 -264 -336 0
-188 -265 -337 0
-188 -266 -338 0
-188 -267 -339 0
-188 -268 -340 0
-188 -269 -341 0
-188 -270 -342 0
-189 -262 -343 0
-189 -263 -344 0
-189 -264 -345 0
-189 -265 -346 0
-189 -266 -347 0
-189 -267 -348 0
-189 -268 -349 0
-189 -269 -350 0
-189 -270 -351 0
1 2 3 0
-1 -2 0
-1 -3 0
-2 -3 0
4 5 6 0
-4 -5 0
-4 -6 0
-5 -6 0
7 8 9 0
-7 -8 0
-7 -9 0
-8 -9 0
10 11 12 0
-10 -11 0
-10 -12 0
-11 -12 0
13 14 15 0
-13 -14 0
-13 -15 0
-14 -15 0
16 17 18 0
-16 -17 0
-16 -18 0
-17 -18 0
19 20 21 0
-19 -20 0
-19 -21 0
-20 -21 0
22 23 24 0
-22 -23 0
-22 -24 0
-23 -24 0
25 26 27 0
-25 -26 0
-25 -27 0
-26 -27 0
-1142 -1 25 26 0
-1142 -2 26 0
-1142 -3 0
-1143 -1 27 0
-1143 -2 25 0
-1143 -3 26 0
1142 1143 0
1142 1144 0
-1144 1145 1146 0
-1144 1145 1147 0
-1147 1148 1149 0
-1147 1148 1150 0
-1150 1151 1152 0
-1150 1151 1153 0
-1153 1154 1155 0
-1153 1154 1156 0
-1156 1157 1158 0
-1156 1157 1159 0
-1159 1160 1161 0
-1159 1160 1162 0
-1162 1163 1164 0
-1162 1163 1165 0
-1165 1166 1167 0
-1145 -4 19 20 0
-1145 -5 20 0
-1145 -6 0
-1146 -4 21 0
-1146 -5 19 0
-1146 -6 20 0
1142 1143 0
1142 1144 0
-1144 1145 1146 0
-1144 1145 1147 0
-1147 1148 1149 0
-1147 1148 1150 0
-1150 1151 1152 0
-1150 1151 1153 0
-1153 1154 1155 0
-1153 1154 1156 0
-1156 1157 1158 0
-1156 1157 1159 0
-1159 1160 1161 0
-1159 1160 1162 0
-1162 1163 1164 0
-1162 1163 1165 0
-1165 1166 1167 0
-1148 -7 22 23 0
-1148 -8 23 0
-1148 -9 0
-1149 -7 24 0
-1149 -8 22 0
-1149 -9 23 0
1142 1143 0
1142 1144 0
-1144 1145 1146 0
-1144 1145 1147 0
-1147 1148 1149 0
-1147 1148 1150 0
-1150 1151 1152 0
-1150 1151 1153 0
-1153 1154 1155 0
-1153 1154 1156 0
-1156 1157 1158 0
-1156 1157 1159 0
-1159 1160 1161 0
-1159 1160 1162 0
-1162 1163 1164 0
-1162 1163 1165 0
-1165 1166 1167 0
-1151 -10 7 8 0
-1151 -11 8 0
-1151 -12 0
-1152 -10 9 0
-1152 -11 7 0
-1152 -12 8 0
1142 1143 0
1142 1144 0
-1144 1145 1146 0
-1144 1145 1147 0
-1147 1148 1149 0
-1147 1148 1150 0
-1150 1151 1152 0
-1150 1151 1153 0
-1153 1154 1155 0
-1153 1154 1156 0
-1156 1157 1158 0
-1156 1157 1159 0
-1159 1160 1161 0
-1159 1160 1162 0
-1162 1163 1164 0
-1162 1163 1165 0
-1165 1166 1167 0
-1154 -13 1 2 0
-1154 -14 2 0
-1154 -15 0
-1155 -13 3 0
-1155 -14 1 0
-1155 -15 2 0
1142 1143 0
1142 1144 0
-1144 1145 1146 0
-1144 1145 1147 0
-1147 1148 1149 0
-1147 1148 1150 0
-1150 1151 1152 0
-1150 1151 1153 0
-1153 1154 1155 0
-1153 1154 1156 0
-1156 1157 1158 0
-1156 1157 1159 0
-1159 1160 1161 0
-1159 1160 1162 0
-1162 1163 1164 0
-1162 1163 1165 0
-1165 1166 1167 0
-1157 -16 4 5 0
-1157 -17 5 0
-1157 -18 0
-1158 -16 6 0
-1158 -17 4 0
-1158 -18 5 0
1142 1143 0
1142 1144 0
-1144 1145 1146 0
-1144 1145 1147 0
-1147 1148 1149 0
-1147 1148 1150 0
-1150 1151 1152 0
-1150 1151 1153 0
-1153 1154 1155 0
-1153 1154 1156 0
-1156 1157 1158 0
-1156 1157 1159 0
-1159 1160 1161 0
-1159 1160 1162 0
-1162 1163 1164 0
-1162 1163 1165 0
-1165 1166 1167 0
-1160 -19 16 17 0
-1160 -20 17 0
-1160 -21 0
-1161 -19 18 0
-1161 -20 16 0
-1161 -21 17 0
1142 1143 0
1142 1144 0
-1144 1145 1146 0
-1144 1145 1147 0
-1147 1148 1149 0
-1147 1148 1150 0
-1150 1151 1152 0
-1150 1151 1153 0
-1153 1154 1155 0
-1153 1154 1156 0
-1156 1157 1158 0
-1156 1157 1159 0
-1159 1160 1161 0
-1159 1160 1162 0
-1162 1163 1164 0
-1162 1163 1165 0
-1165 1166 1167 0
-1163 -22 10 11 0
-1163 -23 11 0
-1163 -24 0
-1164 -22 12 0
-1164 -23 10 0
-1164 -24 11 0
1142 1143 0
1142 1144 0
-1144 1145 1146 0
-1144 1145 1147 0
-1147 1148 1149 0
-1147 1148 1150 0
-1150 1151 1152 0
-1150 1151 1153 0
-1153 1154 1155 0
-1153 1154 1156 0
-1156 1157 1158 0
-1156 1157 1159 0
-1159 1160 1161 0
-1159 1160 1162 0
-1162 1163 1164 0
-1162 1163 1165 0
-1165 1166 1167 0
-1166 -25 13 14 0
-1166 -26 14 0
-1166 -27 0
-1167 -25 15 0
-1167 -26 13 0
-1167 -27 14 0
1142 1143 0
1142 1144 0
-1144 1145 1146 0
-1144 1145 1147 0
-1147 1148 1149 0
-1147 1148 1150 0
-1150 1151 1152 0
-1150 1151 1153 0
-1153 1154 1155 0
-1153 1154 1156 0
-1156 1157 1158 0
-1156 1157 1159 0
-1159 1160 1161 0
-1159 1160 1162 0
-1162 1163 1164 0
-1162 1163 1165 0
-1165 1166 1167 0
-1168 2 0
-1169 1 0
1168 1169 0
1168 1170 0
-1170 1171 1172 0
-1170 1171 1173 0
-1173 1174 1175 0
-1173 1174 1176 0
-1176 1177 1178 0
-1176 1177 1179 0
-1179 1180 1181 0
-1179 1180 1182 0
-1182 1183 1184 0
-1182 1183 1185 0
-1185 1186 1187 0
-1185 1186 1188 0
-1188 1189 1190 0
-1188 1189 1191 0
-1191 1192 1193 0
-1171 -4 8 9 0
-1171 -5 8 0
-1171 -6 0
-1172 -4 7 0
-1172 -5 9 0
-1172 -6 8 0
1168 1169 0
1168 1170 0
-1170 1171 1172 0
-1170 1171 1173 0
-1173 1174 1175 0
-1173 1174 1176 0
-1176 1177 1178 0
-1176 1177 1179 0
-1179 1180 1181 0
-1179 1180 1182 0
-1182 1183 1184 0
-1182 1183 1185 0
-1185 1186 1187 0
-1185 1186 1188 0
-1188 1189 1190 0
-1188 1189 1191 0
-1191 1192 1193 0
-1174 -7 5 6 0
-1174 -8 5 0
-1174 -9 0
-1175 -7 4 0
-1175 -8 6 0
-1175 -9 5 0
1168 1169 0
1168 1170 0
-1170 1171 1172 0
-1170 1171 1173 0
-1173 1174 1175 0
-1173 1174 1176 0
-1176 1177 1178 0
-1176 1177 1179 0
-1179 1180 1181 0
-1179 1180 1182 0
-1182 1183 1184 0
-1182 1183 1185 0
-1185 1186 1187 0
-1185 1186 1188 0
-1188 1189 1190 0
-1188 1189 1191 0
-1191 1192 1193 0
-1177 -10 20 21 0
-1177 -11 20 0
-1177 -12 0
-1178 -10 19 0
-1178 -11 21 0
-1178 -12 20 0
1168 1169 0
1168 1170 0
-1170 1171 1172 0
-1170 1171 1173 0
-1173 1174 1175 0
-1173 1174 1176 0
-1176 1177 1178 0
-1176 1177 1179 0
-1179 1180 1181 0
-1179 1180 1182 0
-1182 1183 1184 0
-1182 1183 1185 0
-1185 1186 1187 0
-1185 1186 1188 0
-1188 1189 1190 0
-1188 1189 1191 0
-1191 1192 1193 0
-1180 -13 26 27 0
-1180 -14 26 0
-1180 -15 0
-1181 -13 25 0
-1181 -14 27 0
-1181 -15 26 0
1168 1169 0
1168 1170 0
-1170 1171 1172 0
-1170 1171 1173 0
-1173 1174 1175 0
-1173 1174 1176 0
-1176 1177 1178 0
-1176 1177 1179 0
-1179 1180 1181 0
-1179 1180 1182 0
-1182 1183 1184 0
-1182 1183 1185 0
-1185 1186 1187 0
-1185 1186 1188 0
-1188 1189 1190 0
-1188 1189 1191 0
-1191 1192 1193 0
-1183 -16 23 24 0
-1183 -17 23 0
-1183 -18 0
-1184 -16 22 0
-1184 -17 24 0
-1184 -18 23 0
1168 1169 0
1168 1170 0
-1170 1171 1172 0
-1170 1171 1173 0
-1173 1174 1175 0
-1173 1174 1176 0
-1176 1177 1178 0
-1176 1177 1179 0
-1179 1180 1181 0
-1179 1180 1182 0
-1182 1183 1184 0
-1182 1183 1185 0
-1185 1186 1187 0
-1185 1186 1188 0
-1188 1189 1190 0
-1188 1189 1191 0
-1191 1192 1193 0
-1186 -19 11 12 0
-1186 -20 11 0
-1186 -21 0
-1187 -19 10 0
-1187 -20 12 0
-1187 -21 11 0
1168 1169 0
1168 1170 0
-1170 1171 1172 0
-1170 1171 1173 0
-1173 1174 1175 0
-1173 1174 1176 0
-1176 1177 1178 0
-1176 1177 1179 0
-1179 1180 1181 0
-1179 1180 1182 0
-1182 1183 1184 0
-1182 1183 1185 0
-1185 1186 1187 0
-1185 1186 1188 0
-1188 1189 1190 0
-1188 1189 1191 0
-1191 1192 1193 0
-1189 -22 17 18 0
-1189 -23 17 0
-1189 -24 0
-1190 -22 16 0
-1190 -23 18 0
-1190 -24 17 0
1168 1169 0
1168 1170 0
-1170 1171 1172 0
-1170 1171 1173 0
-1173 1174 1175 0
-1173 1174 1176 0
-1176 1177 1178 0
-1176 1177 1179 0
-1179 1180 1181 0
-1179 1180 1182 0
-1182 1183 1184 0
-1182 1183 1185 0
-1185 1186 1187 0
-1185 1186 1188 0
-1188 1189 1190 0
-1188 1189 1191 0
-1191 1192 1193 0
-1192 -25 14 15 0
-1192 -26 14 0
-1192 -27 0
-1193 -25 13 0
-1193 -26 15 0
-1193 -27 14 0
1168 1169 0
1168 1170 0
-1170 1171 1172 0
-1170 1171 1173 0
-1173 1174 1175 0
-1173 1174 1176 0
-1176 1177 1178 0
-1176 1177 1179 0
-1179 1180 1181 0
-1179 1180 1182 0
-1182 1183 1184 0
-1182 1183 1185 0
-1185 1186 1187 0
-1185 1186 1188 0
-1188 1189 1190 0
-1188 1189 1191 0
-1191 1192 1193 0
-1194 -1 13 15 0
-1194 -2 15 0
-1194 -3 0
-1195 -1 14 0
-1195 -2 13 0
-1195 -3 15 0
1194 1195 0
1194 1196 0
-1196 1197 1198 0
-1196 1197 1199 0
-1199 1200 1201 0
-1199 1200 1202 0
-1202 1203 1204 0
-1202 1203 1205 0
-1205 1206 1207 0
-1205 1206 1208 0
-1208 1209 1210 0
-1208 1209 1211 0
-1211 1212 1213 0
-1211 1212 1214 0
-1214 1215 1216 0
-1214 1215 1217 0
-1217 1218 1219 0
-1197 -4 10 12 0
-1197 -5 12 0
-1197 -6 0
-1198 -4 11 0
-1198 -5 10 0
-1198 -6 12 0
1194 1195 0
1194 1196 0
-1196 1197 1198 0
-1196 1197 1199 0
-1199 1200 1201 0
-1199 1200 1202 0
-1202 1203 1204 0
-1202 1203 1205 0
-1205 1206 1207 0
-1205 1206 1208 0
-1208 1209 1210 0
-1208 1209 1211 0
-1211 1212 1213 0
-1211 1212 1214 0
-1214 1215 1216 0
-1214 1215 1217 0
-1217 1218 1219 0
-1200 -7 16 18 0
-1200 -8 18 0
-1200 -9 0
-1201 -7 17 0
-1201 -8 16 0
-1201 -9 18 0
1194 1195 0
1194 1196 0
-1196 1197 1198 0
-1196 1197 1199 0
-1199 1200 1201 0
-1199 1200 1202 0
-1202 1203 1204 0
-1202 1203 1205 0
-1205 1206 1207 0
-1205 1206 1208 0
-1208 1209 1210 0
-1208 1209 1211 0
-1211 1212 1213 0
-1211 1212 1214 0
-1214 1215 1216 0
-1214 1215 1217 0
-1217 1218 1219 0
-1203 -10 4 6 0
-1203 -11 6 0
-1203 -12 0
-1204 -10 5 0
-1204 -11 4 0
-1204 -12 6 0
1194 1195 0
1194 1196 0
-1196 1197 1198 0
-1196 1197 1199 0
-1199 1200 1201 0
-1199 1200 1202 0
-1202 1203 1204 0
-1202 1203 1205 0
-1205 1206 1207 0
-1205 1206 1208 0
-1208 1209 1210 0
-1208 1209 1211 0
-1211 1212 1213 0
-1211 1212 1214 0
-1214 1215 1216 0
-1214 1215 1217 0
-1217 1218 1219 0
-1206 -13 1 3 0
-1206 -14 3 0
-1206 -15 0
-1207 -13 2 0
-1207 -14 1 0
-1207 -15 3 0
1194 1195 0
1194 1196 0
-1196 1197 1198 0
-1196 1197 1199 0
-1199 1200 1201 0
-1199 1200 1202 0
-1202 1203 1204 0
-1202 1203 1205 0
-1205 1206 1207 0
-1205 1206 1208 0
-1208 1209 1210 0
-1208 1209 1211 0
-1211 1212 1213 0
-1211 1212 1214 0
-1214 1215 1216 0
-1214 1215 1217 0
-1217 1218 1219 0
-1209 -16 7 9 0
-1209 -17 9 0
-1209 -18 0
-1210 -16 8 0
-1210 -17 7 0
-1210 -18 9 0
1194 1195 0
1194 1196 0
-1196 1197 1198 0
-1196 1197 1199 0
-1199 1200 1201 0
-1199 1200 1202 0
-1202 1203 1204 0
-1202 1203 1205 0
-1205 1206 1207 0
-1205 1206 1208 0
-1208 1209 1210 0
-1208 1209 1211 0
-1211 1212 1213 0
-1211 1212 1214 0
-1214 1215 1216 0
-1214 1215 1217 0
-1217 1218 1219 0
-1212 -19 22 24 0
-1212 -20 24 0
-1212 -21 0
-1213 -19 23 0
-1213 -20 22 0
-1213 -21 24 0
1194 1195 0
1194 1196 0
-1196 1197 1198 0
-1196 1197 1199 0
-1199 1200 1201 0
-1199 1200 1202 0
-1202 1203 1204 0
-1202 1203 1205 0
-1205 1206 1207 0
-1205 1206 1208 0
-1208 1209 1210 0
-1208 1209 1211 0
-1211 1212 1213 0
-1211 1212 1214 0
-1214 1215 1216 0
-1214 1215 1217 0
-1217 1218 1219 0
-1215 -22 19 21 0
-1215 -23 21 0
-1215 -24 0
-1216 -22 20 0
-1216 -23 19 0
-1216 -24 21 0
1194 1195 0
1194 1196 0
-1196 1197 1198 0
-1196 1197 1199 0
-1199 1200 1201 0
-1199 1200 1202 0
-1202 1203 1204 0
-1202 1203 1205 0
-1205 1206 1207 0
-1205 1206 1208 0
-1208 1209 1210 0
-1208 1209 1211 0
-1211 1212 1213 0
-1211 1212 1214 0
-1214 1215 1216 0
-1214 1215 1217 0
-1217 1218 1219 0
-1218 25 0
-1219 27 0
1194 1195 0
1194 1196 0
-1196 1197 1198 0
-1196 1197 1199 0
-1199 1200 1201 0
-1199 1200 1202 0
-1202 1203 1204 0
-1202 1203 1205 0
-1205 1206 1207 0
-1205 1206 1208 0
-1208 1209 1210 0
-1208 1209 1211 0
-1211 1212 1213 0
-1211 1212 1214 0
-1214 1215 1216 0
-1214 1215 1217 0
-1217 1218 1219 0
